# Solution for model FSG
# Objective value = 2.3916632411605756e+03
x_0_1 1
x_0_2 0
x_0_3 0
x_0_4 1
x_0_5 0
x_0_6 0
x_0_7 0
x_1_2 0
x_1_3 0
x_1_4 0
x_1_5 1
x_1_6 0
x_1_7 0
x_2_1 0
x_2_3 0
x_2_4 0
x_2_5 0
x_2_6 0
x_2_7 1
x_3_1 0
x_3_2 0
x_3_4 0
x_3_5 0
x_3_6 1
x_3_7 0
x_4_1 0
x_4_2 1
x_4_3 0
x_4_5 0
x_4_6 0
x_4_7 0
x_5_1 0
x_5_2 0
x_5_3 1
x_5_4 0
x_5_6 0
x_5_7 0
U_1_1 1
U_1_2 0
U_1_3 0
U_2_1 0
U_2_2 1
U_2_3 0
U_3_1 0
U_3_2 1
U_3_3 0
U_4_1 0
U_4_2 1
U_4_3 0
U_5_1 0
U_5_2 1
U_5_3 0
U_6_1 0
U_6_2 0
U_6_3 1
U_7_1 0
U_7_2 0
U_7_3 1
TBar_0 0
TBar_1 4.6856909842626209e+00
TBar_2 1.9311160025521968e+01
TBar_3 1.9017208915762808e+01
TBar_4 1.1175878838003001e+01
TBar_5 1.0945765426522485e+01
TBar_6 30
TBar_7 30
y_0_1_1 0
y_0_1_2 0
y_0_1_3 0
y_0_1_4 0
y_0_1_5 0
y_0_2_1 0
y_0_2_2 0
y_0_2_3 0
y_0_2_4 0
y_0_2_5 0
y_0_3_1 0
y_0_3_2 0
y_0_3_3 0
y_0_3_4 0
y_0_3_5 0
y_0_4_1 0
y_0_4_2 0
y_0_4_3 0
y_0_4_4 0
y_0_4_5 0
y_0_5_1 0
y_0_5_2 0
y_0_5_3 0
y_0_5_4 0
y_0_5_5 0
y_0_6_1 0
y_0_6_2 0
y_0_6_3 0
y_0_6_4 0
y_0_6_5 0
y_0_7_1 0
y_0_7_2 0
y_0_7_3 0
y_0_7_4 0
y_0_7_5 0
y_1_2_1 0
y_1_2_2 0
y_1_2_3 0
y_1_2_4 0
y_1_2_5 0
y_1_3_1 0
y_1_3_2 0
y_1_3_3 0
y_1_3_4 0
y_1_3_5 0
y_1_4_1 0
y_1_4_2 0
y_1_4_3 0
y_1_4_4 0
y_1_4_5 0
y_1_5_1 1
y_1_5_2 1
y_1_5_3 1
y_1_5_4 1
y_1_5_5 1
y_1_6_1 0
y_1_6_2 0
y_1_6_3 0
y_1_6_4 0
y_1_6_5 0
y_1_7_1 0
y_1_7_2 0
y_1_7_3 0
y_1_7_4 0
y_1_7_5 0
y_2_1_1 0
y_2_1_2 0
y_2_1_3 0
y_2_1_4 0
y_2_1_5 0
y_2_3_1 0
y_2_3_2 0
y_2_3_3 0
y_2_3_4 0
y_2_3_5 0
y_2_4_1 0
y_2_4_2 0
y_2_4_3 0
y_2_4_4 0
y_2_4_5 0
y_2_5_1 0
y_2_5_2 0
y_2_5_3 0
y_2_5_4 0
y_2_5_5 0
y_2_6_1 0
y_2_6_2 0
y_2_6_3 0
y_2_6_4 0
y_2_6_5 0
y_2_7_1 0
y_2_7_2 0
y_2_7_3 0
y_2_7_4 0
y_2_7_5 0
y_3_1_1 0
y_3_1_2 0
y_3_1_3 0
y_3_1_4 0
y_3_1_5 0
y_3_2_1 0
y_3_2_2 0
y_3_2_3 0
y_3_2_4 0
y_3_2_5 0
y_3_4_1 0
y_3_4_2 0
y_3_4_3 0
y_3_4_4 0
y_3_4_5 0
y_3_5_1 0
y_3_5_2 0
y_3_5_3 0
y_3_5_4 0
y_3_5_5 0
y_3_6_1 1
y_3_6_2 1
y_3_6_3 1
y_3_6_4 1
y_3_6_5 1
y_3_7_1 0
y_3_7_2 0
y_3_7_3 0
y_3_7_4 0
y_3_7_5 0
y_4_1_1 0
y_4_1_2 0
y_4_1_3 0
y_4_1_4 0
y_4_1_5 0
y_4_2_1 0
y_4_2_2 0
y_4_2_3 0
y_4_2_4 0
y_4_2_5 0
y_4_3_1 0
y_4_3_2 0
y_4_3_3 0
y_4_3_4 0
y_4_3_5 0
y_4_5_1 0
y_4_5_2 0
y_4_5_3 0
y_4_5_4 0
y_4_5_5 0
y_4_6_1 0
y_4_6_2 0
y_4_6_3 0
y_4_6_4 0
y_4_6_5 0
y_4_7_1 0
y_4_7_2 0
y_4_7_3 0
y_4_7_4 0
y_4_7_5 0
y_5_1_1 0
y_5_1_2 0
y_5_1_3 0
y_5_1_4 0
y_5_1_5 0
y_5_2_1 0
y_5_2_2 0
y_5_2_3 0
y_5_2_4 0
y_5_2_5 0
y_5_3_1 1
y_5_3_2 1
y_5_3_3 1
y_5_3_4 1
y_5_3_5 1
y_5_4_1 0
y_5_4_2 0
y_5_4_3 0
y_5_4_4 0
y_5_4_5 0
y_5_6_1 0
y_5_6_2 0
y_5_6_3 0
y_5_6_4 0
y_5_6_5 0
y_5_7_1 0
y_5_7_2 0
y_5_7_3 0
y_5_7_4 0
y_5_7_5 0
Q_0_1 0
Q_0_2 0
Q_0_3 0
Q_0_4 0
Q_0_5 0
Q_1_1 1.1561000000000030e+02
Q_1_2 1.1359500000000030e+02
Q_1_3 1.1524000000000029e+02
Q_1_4 1.1144000000000030e+02
Q_1_5 1.1365500000000029e+02
Q_2_1 1.1094000000000023e+02
Q_2_2 1.0414500000000022e+02
Q_2_3 1.0879000000000022e+02
Q_2_4 1.1586000000000023e+02
Q_2_5 1.1247000000000021e+02
Q_3_1 2.8567999999999961e+02
Q_3_2 2.8241499999999974e+02
Q_3_3 2.6790499999999975e+02
Q_3_4 2.7730499999999967e+02
Q_3_5 284.8
Q_4_1 66.5
Q_4_2 6.5610000000000511e+01
Q_4_3 6.7420000000000513e+01
Q_4_4 7.0045000000000513e+01
Q_4_5 66.6350000000005
Q_5_1 2.0462500000000063e+02
Q_5_2 1.9931500000000065e+02
Q_5_3 1.9990500000000065e+02
Q_5_4 2.0106500000000062e+02
Q_5_5 2.0708000000000061e+02
Q_6_1 2.8567999999999961e+02
Q_6_2 2.8241499999999974e+02
Q_6_3 2.6790499999999975e+02
Q_6_4 2.7730499999999961e+02
Q_6_5 284.8
Q_7_1 1.1094000000000023e+02
Q_7_2 1.0414500000000022e+02
Q_7_3 1.0879000000000022e+02
Q_7_4 1.1586000000000023e+02
Q_7_5 1.1247000000000021e+02
R_6_1 1.8567999999999961e+02
R_6_2 1.8241499999999974e+02
R_6_3 1.6790499999999975e+02
R_6_4 1.7730499999999961e+02
R_6_5 184.8
R_7_1 1.0940000000000225e+01
R_7_2 4.1450000000002190e+00
R_7_3 8.79000000000022
R_7_4 1.5860000000000227e+01
R_7_5 1.2470000000000212e+01
L_1_1 11.36
L_1_2 14.055
L_1_3 2.1615000000000002e+01
L_1_4 1.5815000000000001e+01
L_1_5 9.825
L_2_1 2.605
L_2_2 6.69
L_2_3 5.28
L_2_4 5.71
L_2_5 3.43
L_3_1 4.015
L_3_2 5.44
L_3_3 6.91
L_3_4 6.73
L_3_5 5.025
L_4_1 9.39
L_4_2 10.08
L_4_3 12.78
L_4_4 10.21
L_4_5 8.93
L_5_1 12.71
L_5_2 10.4
L_5_3 13.6
L_5_4 7.32
L_5_5 10.14
rho_1_1 1
rho_1_2 1
rho_1_3 1
rho_1_4 1
rho_1_5 1
rho_2_1 1
rho_2_2 1
rho_2_3 1
rho_2_4 1
rho_2_5 1
rho_3_1 1
rho_3_2 1
rho_3_3 1
rho_3_4 1
rho_3_5 1
rho_4_1 0
rho_4_2 0
rho_4_3 0
rho_4_4 0
rho_4_5 0
rho_5_1 1
rho_5_2 1
rho_5_3 1
rho_5_4 1
rho_5_5 1
lambd_1_1 0
lambd_1_2 0
lambd_1_3 0
lambd_1_4 0
lambd_1_5 0
lambd_2_1 0
lambd_2_2 0
lambd_2_3 0
lambd_2_4 0
lambd_2_5 0
lambd_3_1 0
lambd_3_2 0
lambd_3_3 0
lambd_3_4 0
lambd_3_5 0
lambd_4_1 0
lambd_4_2 0
lambd_4_3 0
lambd_4_4 0
lambd_4_5 0
lambd_5_1 0
lambd_5_2 0
lambd_5_3 0
lambd_5_4 0
lambd_5_5 0
alpha_1_1 1
alpha_1_2 1
alpha_1_3 1
alpha_1_4 1
alpha_1_5 1
alpha_2_1 0
alpha_2_2 0
alpha_2_3 0
alpha_2_4 0
alpha_2_5 0
alpha_3_1 0
alpha_3_2 0
alpha_3_3 0
alpha_3_4 0
alpha_3_5 0
alpha_4_1 0
alpha_4_2 0
alpha_4_3 0
alpha_4_4 0
alpha_4_5 0
alpha_5_1 0
alpha_5_2 0
alpha_5_3 0
alpha_5_4 0
alpha_5_5 0
